(set-logic ALL)
(declare-const BAV1 Bool)
(declare-fun x () (_ FloatingPoint 8 24))
(declare-fun rm () RoundingMode)
(assert (not (= (fp.roundToIntegral rm (fp.roundToIntegral rm x)) (fp.roundToIntegral rm x))))
(assert (= BAV1 (= (fp.roundToIntegral rm (fp.roundToIntegral rm x)) (fp.roundToIntegral rm x))))
(check-sat)
(get-model)